n_nodes = 552;
M = 6701;
n_domains = 18;
domain_link_weights = [|0,6701,6701,358,6701,6701,6701,6701,6701,6701,6701,6701,6701,6701,6701,6701,6701,6701|6701,0,6701,6701,6701,479,344,264,6701,6701,6701,6701,6701,6701,6701,6701,6701,6701|6701,6701,0,6701,6701,6701,6701,6701,6701,972,6701,6701,6701,6701,1788,6701,6701,6701|6701,6701,6701,0,6701,6701,6701,6701,6701,6701,6701,6701,6701,6701,6701,6701,6701,6701|6701,6701,6701,6701,0,364,358,173,6701,6701,6701,6701,6701,6701,6701,6701,6701,6223|6701,6701,6701,6701,6701,0,6701,6701,6701,6701,6701,6701,6701,6701,6701,6701,6701,6701|6701,6701,6701,6701,6701,6701,0,6701,5585,6701,6701,6701,6701,6701,6701,6701,6701,6701|6701,6701,6701,6701,6701,6701,6701,0,6701,6701,6701,6701,6701,6701,6701,6701,6701,6701|6701,6701,6701,6701,6701,6701,6701,6701,0,6701,6701,6701,6701,6701,6701,1148,556,350|6701,6701,6701,6701,6701,6701,6701,6701,6701,0,6701,6701,6701,2562,6701,943,6701,852|6701,6701,6701,6701,6701,6701,6701,6701,6701,6701,0,1141,6701,6701,6701,2795,6701,6701|6701,6701,6701,6701,6701,6701,6701,6701,6701,6701,6701,0,492,6701,6701,2963,6701,3855|6701,6701,6701,6701,6701,6701,6701,6701,6701,6701,6701,6701,0,575,1995,2807,6701,6701|6701,6701,6701,6701,6701,6701,6701,6701,6701,6701,6701,6701,6701,0,1425,6701,6701,6701|6701,6701,6701,6701,6701,6701,6701,6701,6701,6701,6701,6701,6701,6701,0,1291,6701,1872|6701,6701,6701,6701,6701,6701,6701,6701,6701,6701,6701,6701,6701,6701,6701,0,704,916|6701,6701,6701,6701,6701,6701,6701,6701,6701,6701,6701,6701,6701,6701,6701,6701,0,6701|6701,6701,6701,6701,6701,6701,6701,6701,6701,6701,6701,6701,6701,6701,6701,6701,6701,0|];
num_node_links = 1099;
node_links = [|1,3|1,4|2,6|2,7|2,8|3,10|3,15|5,6|5,7|5,8|5,18|7,9|9,16|9,17|9,18|10,14|10,16|10,18|11,12|11,16|12,13|12,16|12,18|13,14|13,15|13,16|14,15|15,16|15,18|16,17|16,18|1,19|19,1|1,37|37,1|1,54|54,1|1,57|57,1|1,71|71,1|1,84|84,1|1,87|87,1|1,106|106,1|1,136|136,1|1,142|142,1|1,163|163,1|1,164|164,1|1,186|186,1|1,202|202,1|1,206|206,1|1,208|208,1|1,213|213,1|1,235|235,1|1,268|268,1|1,280|280,1|1,312|312,1|1,323|323,1|1,343|343,1|1,396|396,1|1,411|411,1|1,453|453,1|1,474|474,1|1,479|479,1|1,496|496,1|1,516|516,1|2,20|20,2|2,61|61,2|2,62|62,2|2,85|85,2|2,126|126,2|2,129|129,2|2,158|158,2|2,168|168,2|2,193|193,2|2,219|219,2|2,222|222,2|2,246|246,2|2,278|278,2|2,279|279,2|2,292|292,2|2,310|310,2|2,326|326,2|2,339|339,2|2,368|368,2|2,393|393,2|2,424|424,2|2,442|442,2|2,447|447,2|2,455|455,2|2,456|456,2|2,468|468,2|2,493|493,2|2,498|498,2|2,539|539,2|2,547|547,2|3,21|21,3|3,68|68,3|3,103|103,3|3,108|108,3|3,144|144,3|3,147|147,3|3,167|167,3|3,171|171,3|3,178|178,3|3,184|184,3|3,211|211,3|3,214|214,3|3,247|247,3|3,248|248,3|3,267|267,3|3,291|291,3|3,296|296,3|3,308|308,3|3,311|311,3|3,315|315,3|3,320|320,3|3,329|329,3|3,334|334,3|3,365|365,3|3,383|383,3|3,402|402,3|3,414|414,3|3,495|495,3|3,515|515,3|3,548|548,3|4,22|22,4|4,46|46,4|4,48|48,4|4,78|78,4|4,118|118,4|4,157|157,4|4,159|159,4|4,187|187,4|4,198|198,4|4,227|227,4|4,276|276,4|4,285|285,4|4,288|288,4|4,290|290,4|4,301|301,4|4,338|338,4|4,344|344,4|4,359|359,4|4,374|374,4|4,382|382,4|4,388|388,4|4,397|397,4|4,410|410,4|4,421|421,4|4,430|430,4|4,438|438,4|4,513|513,4|4,521|521,4|4,535|535,4|4,544|544,4|5,23|23,5|5,44|44,5|5,49|49,5|5,63|63,5|5,67|67,5|5,113|113,5|5,119|119,5|5,130|130,5|5,145|145,5|5,151|151,5|5,199|199,5|5,231|231,5|5,242|242,5|5,243|243,5|5,269|269,5|5,270|270,5|5,299|299,5|5,317|317,5|5,328|328,5|5,348|348,5|5,352|352,5|5,353|353,5|5,354|354,5|5,428|428,5|5,439|439,5|5,451|451,5|5,484|484,5|5,501|501,5|5,506|506,5|5,532|532,5|6,24|24,6|6,58|58,6|6,59|59,6|6,83|83,6|6,117|117,6|6,120|120,6|6,148|148,6|6,160|160,6|6,194|194,6|6,195|195,6|6,212|212,6|6,217|217,6|6,289|289,6|6,300|300,6|6,309|309,6|6,318|318,6|6,346|346,6|6,363|363,6|6,369|369,6|6,385|385,6|6,407|407,6|6,459|459,6|6,463|463,6|6,470|470,6|6,481|481,6|6,492|492,6|6,504|504,6|6,524|524,6|6,525|525,6|6,545|545,6|7,25|25,7|7,42|42,7|7,77|77,7|7,88|88,7|7,94|94,7|7,97|97,7|7,125|125,7|7,165|165,7|7,175|175,7|7,189|189,7|7,229|229,7|7,238|238,7|7,294|294,7|7,322|322,7|7,371|371,7|7,372|372,7|7,376|376,7|7,384|384,7|7,445|445,7|7,449|449,7|7,450|450,7|7,460|460,7|7,471|471,7|7,489|489,7|7,505|505,7|7,528|528,7|7,537|537,7|7,543|543,7|7,549|549,7|7,552|552,7|8,26|26,8|8,50|50,8|8,55|55,8|8,69|69,8|8,70|70,8|8,76|76,8|8,92|92,8|8,95|95,8|8,135|135,8|8,139|139,8|8,197|197,8|8,200|200,8|8,210|210,8|8,223|223,8|8,240|240,8|8,253|253,8|8,260|260,8|8,284|284,8|8,316|316,8|8,333|333,8|8,350|350,8|8,394|394,8|8,398|398,8|8,409|409,8|8,477|477,8|8,508|508,8|8,511|511,8|8,531|531,8|8,533|533,8|8,534|534,8|9,27|27,9|9,41|41,9|9,47|47,9|9,86|86,9|9,132|132,9|9,137|137,9|9,138|138,9|9,152|152,9|9,156|156,9|9,177|177,9|9,188|188,9|9,218|218,9|9,225|225,9|9,230|230,9|9,249|249,9|9,251|251,9|9,274|274,9|9,305|305,9|9,313|313,9|9,391|391,9|9,404|404,9|9,406|406,9|9,432|432,9|9,448|448,9|9,475|475,9|9,480|480,9|9,512|512,9|9,523|523,9|9,546|546,9|9,551|551,9|10,28|28,10|10,93|93,10|10,102|102,10|10,110|110,10|10,123|123,10|10,124|124,10|10,149|149,10|10,192|192,10|10,203|203,10|10,209|209,10|10,215|215,10|10,234|234,10|10,237|237,10|10,281|281,10|10,293|293,10|10,307|307,10|10,342|342,10|10,358|358,10|10,366|366,10|10,378|378,10|10,403|403,10|10,408|408,10|10,482|482,10|10,503|503,10|10,507|507,10|10,509|509,10|10,518|518,10|10,526|526,10|10,541|541,10|10,542|542,10|11,29|29,11|11,99|99,11|11,121|121,11|11,122|122,11|11,134|134,11|11,183|183,11|11,236|236,11|11,262|262,11|11,265|265,11|11,275|275,11|11,277|277,11|11,297|297,11|11,304|304,11|11,335|335,11|11,362|362,11|11,373|373,11|11,379|379,11|11,387|387,11|11,392|392,11|11,401|401,11|11,426|426,11|11,427|427,11|11,433|433,11|11,462|462,11|11,464|464,11|11,487|487,11|11,494|494,11|11,499|499,11|12,30|30,12|12,38|38,12|12,90|90,12|12,107|107,12|12,127|127,12|12,146|146,12|12,169|169,12|12,170|170,12|12,233|233,12|12,272|272,12|12,295|295,12|12,314|314,12|12,330|330,12|12,332|332,12|12,345|345,12|12,356|356,12|12,357|357,12|12,381|381,12|12,419|419,12|12,423|423,12|12,436|436,12|12,444|444,12|12,454|454,12|12,458|458,12|12,466|466,12|12,472|472,12|12,500|500,12|12,517|517,12|12,522|522,12|12,530|530,12|13,31|31,13|13,56|56,13|13,80|80,13|13,96|96,13|13,114|114,13|13,153|153,13|13,162|162,13|13,190|190,13|13,239|239,13|13,271|271,13|13,273|273,13|13,283|283,13|13,298|298,13|13,302|302,13|13,303|303,13|13,336|336,13|13,340|340,13|13,395|395,13|13,400|400,13|13,415|415,13|13,418|418,13|13,420|420,13|13,443|443,13|13,465|465,13|13,467|467,13|13,469|469,13|13,510|510,13|13,519|519,13|13,520|520,13|13,550|550,13|14,32|32,14|14,45|45,14|14,60|60,14|14,64|64,14|14,65|65,14|14,66|66,14|14,74|74,14|14,91|91,14|14,98|98,14|14,112|112,14|14,140|140,14|14,141|141,14|14,166|166,14|14,191|191,14|14,226|226,14|14,252|252,14|14,264|264,14|14,282|282,14|14,325|325,14|14,355|355,14|14,367|367,14|14,389|389,14|14,399|399,14|14,405|405,14|14,417|417,14|14,431|431,14|14,440|440,14|14,452|452,14|14,473|473,14|14,486|486,14|15,33|33,15|15,39|39,15|15,79|79,15|15,81|81,15|15,101|101,15|15,104|104,15|15,128|128,15|15,161|161,15|15,180|180,15|15,181|181,15|15,204|204,15|15,205|205,15|15,207|207,15|15,232|232,15|15,261|261,15|15,306|306,15|15,331|331,15|15,337|337,15|15,349|349,15|15,361|361,15|15,429|429,15|15,435|435,15|15,446|446,15|15,461|461,15|15,483|483,15|15,490|490,15|15,491|491,15|15,502|502,15|15,529|529,15|15,538|538,15|16,34|34,16|16,43|43,16|16,51|51,16|16,53|53,16|16,75|75,16|16,111|111,16|16,179|179,16|16,185|185,16|16,196|196,16|16,216|216,16|16,221|221,16|16,241|241,16|16,250|250,16|16,257|257,16|16,286|286,16|16,319|319,16|16,327|327,16|16,341|341,16|16,347|347,16|16,351|351,16|16,364|364,16|16,370|370,16|16,416|416,16|16,437|437,16|16,476|476,16|16,478|478,16|16,514|514,16|17,35|35,17|17,72|72,17|17,82|82,17|17,100|100,17|17,105|105,17|17,109|109,17|17,115|115,17|17,116|116,17|17,150|150,17|17,172|172,17|17,173|173,17|17,174|174,17|17,176|176,17|17,201|201,17|17,220|220,17|17,224|224,17|17,244|244,17|17,254|254,17|17,255|255,17|17,256|256,17|17,258|258,17|17,259|259,17|17,266|266,17|17,287|287,17|17,321|321,17|17,380|380,17|17,413|413,17|17,425|425,17|17,485|485,17|17,488|488,17|18,36|36,18|18,40|40,18|18,52|52,18|18,73|73,18|18,89|89,18|18,131|131,18|18,133|133,18|18,143|143,18|18,154|154,18|18,155|155,18|18,182|182,18|18,228|228,18|18,245|245,18|18,263|263,18|18,324|324,18|18,360|360,18|18,375|375,18|18,377|377,18|18,386|386,18|18,390|390,18|18,412|412,18|18,422|422,18|18,434|434,18|18,441|441,18|18,457|457,18|18,497|497,18|18,527|527,18|18,536|536,18|18,540|540,18|];
nodes = [|1,9,0,0,0,0,1,1|2,9,0,0,0,0,1,2|3,9,0,0,0,0,1,3|4,9,0,0,0,0,1,4|5,9,0,0,0,0,1,5|6,9,0,0,0,0,1,6|7,9,0,0,0,0,1,7|8,9,0,0,0,0,1,8|9,9,0,0,0,0,1,9|10,9,0,0,0,0,1,10|11,9,0,0,0,0,1,11|12,9,0,0,0,0,1,12|13,9,0,0,0,0,1,13|14,9,0,0,0,0,1,14|15,9,0,0,0,0,1,15|16,9,0,0,0,0,1,16|17,9,0,0,0,0,1,17|18,9,0,0,0,0,1,18|19,10,0,0,0,0,1,1|20,10,0,0,0,0,1,2|21,10,0,0,0,0,1,3|22,10,0,0,0,0,1,4|23,10,0,0,0,0,1,5|24,10,0,0,0,0,1,6|25,10,0,0,0,0,1,7|26,10,0,0,0,0,1,8|27,10,0,0,0,0,1,9|28,10,0,0,0,0,1,10|29,10,0,0,0,0,1,11|30,10,0,0,0,0,1,12|31,10,0,0,0,0,1,13|32,10,0,0,0,0,1,14|33,10,0,0,0,0,1,15|34,10,0,0,0,0,1,16|35,10,0,0,0,0,1,17|36,10,0,0,0,0,1,18|37,2,0,0,0,0,1,1|38,3,0,0,0,0,1,12|39,4,0,0,0,0,1,15|40,3,0,0,0,0,1,18|41,1,0,0,0,0,1,9|42,3,0,0,0,0,1,7|43,5,0,0,0,0,1,16|44,4,0,0,0,0,1,5|45,2,0,0,0,0,1,14|46,1,0,0,0,0,1,4|47,2,0,0,0,0,1,9|48,3,0,0,0,0,1,4|49,5,0,0,0,0,1,5|50,5,0,0,0,0,1,8|51,4,0,0,0,0,1,16|52,5,0,0,0,0,1,18|53,2,0,0,0,0,1,16|54,4,0,0,0,0,1,1|55,1,0,0,0,0,1,8|56,5,0,0,0,0,1,13|57,5,0,0,0,0,1,1|58,1,0,0,0,0,1,6|59,3,0,0,0,0,1,6|60,1,0,0,0,0,1,14|61,3,0,0,0,0,1,2|62,1,0,0,0,0,1,2|63,5,0,0,0,0,1,5|64,3,0,0,0,0,1,14|65,5,0,0,0,0,1,14|66,4,0,0,0,0,1,14|67,3,0,0,0,0,1,5|68,3,0,0,0,0,1,3|69,3,0,0,0,0,1,8|70,2,0,0,0,0,1,8|71,3,0,0,0,0,1,1|72,5,0,0,0,0,1,17|73,2,0,0,0,0,1,18|74,2,0,0,0,0,1,14|75,5,0,0,0,0,1,16|76,4,0,0,0,0,1,8|77,4,0,0,0,0,1,7|78,1,0,0,0,0,1,4|79,1,0,0,0,0,1,15|80,1,0,0,0,0,1,13|81,3,0,0,0,0,1,15|82,1,0,0,0,0,1,17|83,3,0,0,0,0,1,6|84,5,0,0,0,0,1,1|85,4,0,0,0,0,1,2|86,2,0,0,0,0,1,9|87,2,0,0,0,0,1,1|88,4,0,0,0,0,1,7|89,3,0,0,0,0,1,18|90,5,0,0,0,0,1,12|91,1,0,0,0,0,1,14|92,4,0,0,0,0,1,8|93,1,0,0,0,0,1,10|94,1,0,0,0,0,1,7|95,4,0,0,0,0,1,8|96,2,0,0,0,0,1,13|97,5,0,0,0,0,1,7|98,5,0,0,0,0,1,14|99,1,0,0,0,0,1,11|100,3,0,0,0,0,1,17|101,1,0,0,0,0,1,15|102,4,0,0,0,0,1,10|103,3,0,0,0,0,1,3|104,4,0,0,0,0,1,15|105,4,0,0,0,0,1,17|106,4,0,0,0,0,1,1|107,3,0,0,0,0,1,12|108,4,0,0,0,0,1,3|109,3,0,0,0,0,1,17|110,2,0,0,0,0,1,10|111,2,0,0,0,0,1,16|112,1,0,0,0,0,1,14|113,4,0,0,0,0,1,5|114,1,0,0,0,0,1,13|115,2,0,0,0,0,1,17|116,4,0,0,0,0,1,17|117,2,0,0,0,0,1,6|118,5,0,0,0,0,1,4|119,2,0,0,0,0,1,5|120,5,0,0,0,0,1,6|121,1,0,0,0,0,1,11|122,1,0,0,0,0,1,11|123,5,0,0,0,0,1,10|124,5,0,0,0,0,1,10|125,4,0,0,0,0,1,7|126,4,0,0,0,0,1,2|127,4,0,0,0,0,1,12|128,3,0,0,0,0,1,15|129,2,0,0,0,0,1,2|130,2,0,0,0,0,1,5|131,2,0,0,0,0,1,18|132,4,0,0,0,0,1,9|133,4,0,0,0,0,1,18|134,3,0,0,0,0,1,11|135,4,0,0,0,0,1,8|136,3,0,0,0,0,1,1|137,3,0,0,0,0,1,9|138,1,0,0,0,0,1,9|139,1,0,0,0,0,1,8|140,1,0,0,0,0,1,14|141,4,0,0,0,0,1,14|142,1,0,0,0,0,1,1|143,4,0,0,0,0,1,18|144,3,0,0,0,0,1,3|145,2,0,0,0,0,1,5|146,2,0,0,0,0,1,12|147,4,0,0,0,0,1,3|148,2,0,0,0,0,1,6|149,1,0,0,0,0,1,10|150,1,0,0,0,0,1,17|151,1,0,0,0,0,1,5|152,1,0,0,0,0,1,9|153,3,0,0,0,0,1,13|154,1,0,0,0,0,1,18|155,5,0,0,0,0,1,18|156,5,0,0,0,0,1,9|157,2,0,0,0,0,1,4|158,1,0,0,0,0,1,2|159,3,0,0,0,0,1,4|160,3,0,0,0,0,1,6|161,4,0,0,0,0,1,15|162,1,0,0,0,0,1,13|163,1,0,0,0,0,1,1|164,4,0,0,0,0,1,1|165,5,0,0,0,0,1,7|166,2,0,0,0,0,1,14|167,5,0,0,0,0,1,3|168,2,0,0,0,0,1,2|169,2,0,0,0,0,1,12|170,2,0,0,0,0,1,12|171,5,0,0,0,0,1,3|172,2,0,0,0,0,1,17|173,4,0,0,0,0,1,17|174,5,0,0,0,0,1,17|175,2,0,0,0,0,1,7|176,2,0,0,0,0,1,17|177,2,0,0,0,0,1,9|178,1,0,0,0,0,1,3|179,2,0,0,0,0,1,16|180,1,0,0,0,0,1,15|181,2,0,0,0,0,1,15|182,3,0,0,0,0,1,18|183,4,0,0,0,0,1,11|184,5,0,0,0,0,1,3|185,4,0,0,0,0,1,16|186,4,0,0,0,0,1,1|187,1,0,0,0,0,1,4|188,2,0,0,0,0,1,9|189,4,0,0,0,0,1,7|190,5,0,0,0,0,1,13|191,4,0,0,0,0,1,14|192,5,0,0,0,0,1,10|193,2,0,0,0,0,1,2|194,4,0,0,0,0,1,6|195,1,0,0,0,0,1,6|196,4,0,0,0,0,1,16|197,1,0,0,0,0,1,8|198,5,0,0,0,0,1,4|199,4,0,0,0,0,1,5|200,4,0,0,0,0,1,8|201,1,0,0,0,0,1,17|202,4,0,0,0,0,1,1|203,5,0,0,0,0,1,10|204,1,0,0,0,0,1,15|205,3,0,0,0,0,1,15|206,4,0,0,0,0,1,1|207,3,0,0,0,0,1,15|208,3,0,0,0,0,1,1|209,4,0,0,0,0,1,10|210,4,0,0,0,0,1,8|211,4,0,0,0,0,1,3|212,1,0,0,0,0,1,6|213,4,0,0,0,0,1,1|214,5,0,0,0,0,1,3|215,4,0,0,0,0,1,10|216,2,0,0,0,0,1,16|217,1,0,0,0,0,1,6|218,3,0,0,0,0,1,9|219,1,0,0,0,0,1,2|220,5,0,0,0,0,1,17|221,5,0,0,0,0,1,16|222,3,0,0,0,0,1,2|223,1,0,0,0,0,1,8|224,3,0,0,0,0,1,17|225,4,0,0,0,0,1,9|226,1,0,0,0,0,1,14|227,4,0,0,0,0,1,4|228,2,0,0,0,0,1,18|229,3,0,0,0,0,1,7|230,2,0,0,0,0,1,9|231,4,0,0,0,0,1,5|232,3,0,0,0,0,1,15|233,1,0,0,0,0,1,12|234,3,0,0,0,0,1,10|235,2,0,0,0,0,1,1|236,5,0,0,0,0,1,11|237,4,0,0,0,0,1,10|238,3,0,0,0,0,1,7|239,4,0,0,0,0,1,13|240,1,0,0,0,0,1,8|241,2,0,0,0,0,1,16|242,5,0,0,0,0,1,5|243,4,0,0,0,0,1,5|244,5,0,0,0,0,1,17|245,4,0,0,0,0,1,18|246,2,0,0,0,0,1,2|247,4,0,0,0,0,1,3|248,4,0,0,0,0,1,3|249,1,0,0,0,0,1,9|250,2,0,0,0,0,1,16|251,5,0,0,0,0,1,9|252,3,0,0,0,0,1,14|253,3,0,0,0,0,1,8|254,5,0,0,0,0,1,17|255,2,0,0,0,0,1,17|256,2,0,0,0,0,1,17|257,5,0,0,0,0,1,16|258,5,0,0,0,0,1,17|259,1,0,0,0,0,1,17|260,1,0,0,0,0,1,8|261,3,0,0,0,0,1,15|262,2,0,0,0,0,1,11|263,1,0,0,0,0,1,18|264,5,0,0,0,0,1,14|265,3,0,0,0,0,1,11|266,2,0,0,0,0,1,17|267,5,0,0,0,0,1,3|268,4,0,0,0,0,1,1|269,3,0,0,0,0,1,5|270,4,0,0,0,0,1,5|271,3,0,0,0,0,1,13|272,4,0,0,0,0,1,12|273,5,0,0,0,0,1,13|274,3,0,0,0,0,1,9|275,4,0,0,0,0,1,11|276,4,0,0,0,0,1,4|277,1,0,0,0,0,1,11|278,1,0,0,0,0,1,2|279,2,0,0,0,0,1,2|280,4,0,0,0,0,1,1|281,5,0,0,0,0,1,10|282,2,0,0,0,0,1,14|283,1,0,0,0,0,1,13|284,3,0,0,0,0,1,8|285,5,0,0,0,0,1,4|286,2,0,0,0,0,1,16|287,4,0,0,0,0,1,17|288,5,0,0,0,0,1,4|289,3,0,0,0,0,1,6|290,1,0,0,0,0,1,4|291,3,0,0,0,0,1,3|292,2,0,0,0,0,1,2|293,1,0,0,0,0,1,10|294,2,0,0,0,0,1,7|295,1,0,0,0,0,1,12|296,3,0,0,0,0,1,3|297,2,0,0,0,0,1,11|298,1,0,0,0,0,1,13|299,2,0,0,0,0,1,5|300,1,0,0,0,0,1,6|301,4,0,0,0,0,1,4|302,2,0,0,0,0,1,13|303,5,0,0,0,0,1,13|304,5,0,0,0,0,1,11|305,4,0,0,0,0,1,9|306,1,0,0,0,0,1,15|307,3,0,0,0,0,1,10|308,1,0,0,0,0,1,3|309,2,0,0,0,0,1,6|310,5,0,0,0,0,1,2|311,4,0,0,0,0,1,3|312,4,0,0,0,0,1,1|313,1,0,0,0,0,1,9|314,3,0,0,0,0,1,12|315,5,0,0,0,0,1,3|316,5,0,0,0,0,1,8|317,1,0,0,0,0,1,5|318,2,0,0,0,0,1,6|319,2,0,0,0,0,1,16|320,3,0,0,0,0,1,3|321,4,0,0,0,0,1,17|322,3,0,0,0,0,1,7|323,3,0,0,0,0,1,1|324,5,0,0,0,0,1,18|325,1,0,0,0,0,1,14|326,1,0,0,0,0,1,2|327,4,0,0,0,0,1,16|328,5,0,0,0,0,1,5|329,4,0,0,0,0,1,3|330,1,0,0,0,0,1,12|331,4,0,0,0,0,1,15|332,2,0,0,0,0,1,12|333,5,0,0,0,0,1,8|334,2,0,0,0,0,1,3|335,3,0,0,0,0,1,11|336,5,0,0,0,0,1,13|337,4,0,0,0,0,1,15|338,1,0,0,0,0,1,4|339,3,0,0,0,0,1,2|340,1,0,0,0,0,1,13|341,5,0,0,0,0,1,16|342,5,0,0,0,0,1,10|343,2,0,0,0,0,1,1|344,3,0,0,0,0,1,4|345,5,0,0,0,0,1,12|346,5,0,0,0,0,1,6|347,4,0,0,0,0,1,16|348,5,0,0,0,0,1,5|349,5,0,0,0,0,1,15|350,2,0,0,0,0,1,8|351,1,0,0,0,0,1,16|352,5,0,0,0,0,1,5|353,3,0,0,0,0,1,5|354,2,0,0,0,0,1,5|355,4,0,0,0,0,1,14|356,2,0,0,0,0,1,12|357,5,0,0,0,0,1,12|358,5,0,0,0,0,1,10|359,2,0,0,0,0,1,4|360,3,0,0,0,0,1,18|361,1,0,0,0,0,1,15|362,1,0,0,0,0,1,11|363,5,0,0,0,0,1,6|364,3,0,0,0,0,1,16|365,5,0,0,0,0,1,3|366,2,0,0,0,0,1,10|367,3,0,0,0,0,1,14|368,5,0,0,0,0,1,2|369,1,0,0,0,0,1,6|370,3,0,0,0,0,1,16|371,2,0,0,0,0,1,7|372,2,0,0,0,0,1,7|373,3,0,0,0,0,1,11|374,3,0,0,0,0,1,4|375,2,0,0,0,0,1,18|376,4,0,0,0,0,1,7|377,5,0,0,0,0,1,18|378,1,0,0,0,0,1,10|379,5,0,0,0,0,1,11|380,2,0,0,0,0,1,17|381,5,0,0,0,0,1,12|382,3,0,0,0,0,1,4|383,1,0,0,0,0,1,3|384,5,0,0,0,0,1,7|385,2,0,0,0,0,1,6|386,5,0,0,0,0,1,18|387,3,0,0,0,0,1,11|388,5,0,0,0,0,1,4|389,1,0,0,0,0,1,14|390,3,0,0,0,0,1,18|391,4,0,0,0,0,1,9|392,5,0,0,0,0,1,11|393,4,0,0,0,0,1,2|394,3,0,0,0,0,1,8|395,3,0,0,0,0,1,13|396,1,0,0,0,0,1,1|397,2,0,0,0,0,1,4|398,5,0,0,0,0,1,8|399,2,0,0,0,0,1,14|400,3,0,0,0,0,1,13|401,1,0,0,0,0,1,11|402,3,0,0,0,0,1,3|403,5,0,0,0,0,1,10|404,3,0,0,0,0,1,9|405,3,0,0,0,0,1,14|406,3,0,0,0,0,1,9|407,4,0,0,0,0,1,6|408,1,0,0,0,0,1,10|409,3,0,0,0,0,1,8|410,5,0,0,0,0,1,4|411,4,0,0,0,0,1,1|412,2,0,0,0,0,1,18|413,3,0,0,0,0,1,17|414,5,0,0,0,0,1,3|415,1,0,0,0,0,1,13|416,1,0,0,0,0,1,16|417,5,0,0,0,0,1,14|418,5,0,0,0,0,1,13|419,3,0,0,0,0,1,12|420,1,0,0,0,0,1,13|421,5,0,0,0,0,1,4|422,5,0,0,0,0,1,18|423,2,0,0,0,0,1,12|424,2,0,0,0,0,1,2|425,4,0,0,0,0,1,17|426,4,0,0,0,0,1,11|427,4,0,0,0,0,1,11|428,4,0,0,0,0,1,5|429,3,0,0,0,0,1,15|430,3,0,0,0,0,1,4|431,5,0,0,0,0,1,14|432,4,0,0,0,0,1,9|433,5,0,0,0,0,1,11|434,3,0,0,0,0,1,18|435,4,0,0,0,0,1,15|436,4,0,0,0,0,1,12|437,5,0,0,0,0,1,16|438,2,0,0,0,0,1,4|439,1,0,0,0,0,1,5|440,3,0,0,0,0,1,14|441,5,0,0,0,0,1,18|442,5,0,0,0,0,1,2|443,2,0,0,0,0,1,13|444,2,0,0,0,0,1,12|445,3,0,0,0,0,1,7|446,1,0,0,0,0,1,15|447,1,0,0,0,0,1,2|448,3,0,0,0,0,1,9|449,4,0,0,0,0,1,7|450,3,0,0,0,0,1,7|451,4,0,0,0,0,1,5|452,5,0,0,0,0,1,14|453,1,0,0,0,0,1,1|454,2,0,0,0,0,1,12|455,1,0,0,0,0,1,2|456,5,0,0,0,0,1,2|457,1,0,0,0,0,1,18|458,3,0,0,0,0,1,12|459,1,0,0,0,0,1,6|460,5,0,0,0,0,1,7|461,1,0,0,0,0,1,15|462,3,0,0,0,0,1,11|463,5,0,0,0,0,1,6|464,5,0,0,0,0,1,11|465,3,0,0,0,0,1,13|466,4,0,0,0,0,1,12|467,4,0,0,0,0,1,13|468,1,0,0,0,0,1,2|469,2,0,0,0,0,1,13|470,5,0,0,0,0,1,6|471,2,0,0,0,0,1,7|472,2,0,0,0,0,1,12|473,4,0,0,0,0,1,14|474,5,0,0,0,0,1,1|475,1,0,0,0,0,1,9|476,3,0,0,0,0,1,16|477,1,0,0,0,0,1,8|478,3,0,0,0,0,1,16|479,4,0,0,0,0,1,1|480,1,0,0,0,0,1,9|481,2,0,0,0,0,1,6|482,2,0,0,0,0,1,10|483,2,0,0,0,0,1,15|484,1,0,0,0,0,1,5|485,5,0,0,0,0,1,17|486,2,0,0,0,0,1,14|487,4,0,0,0,0,1,11|488,1,0,0,0,0,1,17|489,1,0,0,0,0,1,7|490,3,0,0,0,0,1,15|491,2,0,0,0,0,1,15|492,1,0,0,0,0,1,6|493,1,0,0,0,0,1,2|494,2,0,0,0,0,1,11|495,2,0,0,0,0,1,3|496,3,0,0,0,0,1,1|497,5,0,0,0,0,1,18|498,3,0,0,0,0,1,2|499,5,0,0,0,0,1,11|500,4,0,0,0,0,1,12|501,5,0,0,0,0,1,5|502,1,0,0,0,0,1,15|503,4,0,0,0,0,1,10|504,2,0,0,0,0,1,6|505,4,0,0,0,0,1,7|506,5,0,0,0,0,1,5|507,5,0,0,0,0,1,10|508,3,0,0,0,0,1,8|509,3,0,0,0,0,1,10|510,1,0,0,0,0,1,13|511,4,0,0,0,0,1,8|512,2,0,0,0,0,1,9|513,3,0,0,0,0,1,4|514,4,0,0,0,0,1,16|515,5,0,0,0,0,1,3|516,2,0,0,0,0,1,1|517,5,0,0,0,0,1,12|518,5,0,0,0,0,1,10|519,5,0,0,0,0,1,13|520,4,0,0,0,0,1,13|521,2,0,0,0,0,1,4|522,1,0,0,0,0,1,12|523,5,0,0,0,0,1,9|524,3,0,0,0,0,1,6|525,2,0,0,0,0,1,6|526,4,0,0,0,0,1,10|527,3,0,0,0,0,1,18|528,5,0,0,0,0,1,7|529,4,0,0,0,0,1,15|530,4,0,0,0,0,1,12|531,2,0,0,0,0,1,8|532,1,0,0,0,0,1,5|533,3,0,0,0,0,1,8|534,1,0,0,0,0,1,8|535,3,0,0,0,0,1,4|536,3,0,0,0,0,1,18|537,5,0,0,0,0,1,7|538,5,0,0,0,0,1,15|539,4,0,0,0,0,1,2|540,2,0,0,0,0,1,18|541,1,0,0,0,0,1,10|542,5,0,0,0,0,1,10|543,3,0,0,0,0,1,7|544,4,0,0,0,0,1,4|545,4,0,0,0,0,1,6|546,4,0,0,0,0,1,9|547,1,0,0,0,0,1,2|548,2,0,0,0,0,1,3|549,1,0,0,0,0,1,7|550,3,0,0,0,0,1,13|551,4,0,0,0,0,1,9|552,1,0,0,0,0,1,7|];
